2343425
0,191,61,116,161,204,150,27,144,155,43,18,110,44,167,114,84,78,142,10,197,75,7,188,184,113,130,200,209,6,39,49,54,93,165,183,214,178,227,216,11,3,41,22,162,126,73,139,42,177,25,21,19,62,48,31,4,207,174,52,53,55,98,104,189,65,23,17,215,148,56,47,46,137,225,2,15,198,105,221,206,146,117,66,38,35,195,160,100,86,77,36,80,95,115,16,143,88,82,134,156,208,109,224,45,133,222,9,81,211,205,159,135,123,79,1,120,179,218,201,40,125,24,166,147,181,28,13,194,192,190,97,50,112,124,172,187,217,153,71,228,182,74,106,67,226,176,14,94,83,96,121,119,29,12,59,136,158,70,30,69,85,118,171,68,64,60,58,57,212,219,163,213,196,199,72,151,180,173,164,193,90,210,223,108,89,141,169,185,202,37,20,152,157,76,91,99,127,140,131,229,103,87,32,128,149,170,186,145,102,51,138,92,220,203,122,175,63,5,8,26,107,34,101,33,129,168,111,154,132,0